UNSAT
Input variables: 72
Total nodes: 3531
Maximum live nodes: 3531
Total apply operations: 25926
Total GCs performed: 0
Results from proof generation
Total Clauses: 35215
Input clauses: 297
Constraint system proved formula UNSAT
  Solution status: unsolvable
    32 total constraints.  465 total nonzeros (14.53 avg, 36 max).
Elapsed time for SAT: 0.71 seconds
c parsed a formula with 72 variables and 297 clauses
c VERIFIED
c Added clauses = 35215.  Deleted clauses = 0.  Max live clauses = 35215
c verification time = 0.03 secs
